StudentsNr = 10;
InstructorsNr = 31;
DaysNr = 1;
SlotsPerDay = 15;
AvailabilitySlotsLenght = 3;
RoomNr = 1;
ProgrammNr = 1;
DegreeNr = 1;
RolesNr = 2;
CoursesNr = 6;
InstructorsProgramm = [{1}, {1}, {1}, {1}, {1}, {1}, {1}, {1}, {1}, {1}, {1}, {1}, {1}, {1}, {1}, {1}, {1}, {1}, {1}, {1}, {1}, {1}, {1}, {1}, {1}, {1}, {1}, {1}, {1}, {1}, {1}];
InstructorRolesPerProgramm = [|{2, 3, 4, 5, 7, 9, 10, 13, 14, 15, 17, 20, 24, 28, 30}, {10, 13, 18, 25, 26, 28}|];
InstructorsAvailability = [|0, 1, 1, 0, 1, |1, 1, 1, 1, 1, |0, 0, 0, 1, 1, |0, 1, 1, 1, 1, |0, 1, 1, 1, 1, |0, 0, 1, 1, 1, |0, 1, 1, 1, 1, |1, 1, 0, 1, 1, |0, 1, 1, 1, 1, |0, 0, 0, 0, 1, |1, 1, 1, 1, 1, |1, 1, 1, 1, 1, |0, 0, 0, 0, 1, |0, 1, 1, 1, 0, |0, 0, 1, 1, 1, |0, 1, 1, 1, 0, |1, 1, 1, 1, 1, |0, 1, 1, 1, 1, |0, 0, 0, 1, 1, |0, 1, 1, 1, 1, |1, 1, 1, 1, 1, |1, 1, 1, 1, 1, |1, 1, 1, 1, 1, |1, 0, 1, 0, 1, |1, 1, 1, 0, 1, |0, 1, 0, 0, 0, |1, 1, 1, 1, 1, |1, 1, 1, 1, 1, |1, 0, 1, 0, 0, |1, 1, 1, 1, 1, |1, 1, 1, 1, 0|];
StudentsProgramm = [1, 1, 1, 1, 1, 1, 1, 1, 1, 1];
StudentsDegree = [1, 1, 1, 1, 1, 1, 1, 1, 1, 1];
StudentsSupervisorId = [17, 10, 22, 26, 15, 22, 1, 28, 26, 11];
StudentsCourseIds = [{1, 2, 3, 4, 5, 6}, {1, 2, 3, 4, 5, 6}, {1, 2, 3, 4, 5, 6}, {1, 2, 3, 4, 5, 6}, {1, 2, 3, 4, 5, 6}, {1, 2, 3, 4, 5, 6}, {1, 2, 3, 4, 5, 6}, {1, 2, 3, 4, 5, 6}, {1, 2, 3, 4, 5, 6}, {1, 2, 3, 4, 5, 6}];
StudentsAvailability = [|0, 0, 0, 0, 1, |1, 1, 1, 1, 1, |0, 0, 1, 1, 1, |0, 1, 0, 0, 1, |1, 1, 1, 1, 1, |1, 1, 1, 0, 1, |0, 0, 1, 1, 1, |0, 1, 1, 1, 1, |0, 0, 0, 0, 0, |0, 1, 1, 1, 1|];
TheoryticalMinCard = [0, 0, 0, 0, 0, 0, 0, 0, 0, 0];
CoursesInstructorIds = [{2, 4, 9, 10, 12, 13, 20, 21, 25, 26, 31}, {3, 7, 9, 11, 12, 14, 16, 19, 24, 27, 29, 30, 31}, {20}, {1, 2, 3, 5, 6, 10, 11, 12, 13, 14, 15, 16, 17, 19, 20, 22, 25, 28, 29, 30, 31}, {2, 5, 11, 22, 24, 29}, {1, 2, 4, 6, 8, 9, 10, 11, 13, 14, 15, 17, 18, 20, 21, 22, 23, 27, 29, 30, 31}];
RolesDemands = [1, 1];
RolesContinuity = [2];
ExamLen = [1, 1, 1, 1, 1, 1, 1, 1, 1, 1];
LunchTsMinLen = 1;
LunchStarts = [6..11];
SupervisorAvailable = 0;
OptimalLunchLenght = [3, 1];
OptimalStartTs = [1, 0];
OptimalFinishTs = [2, 15];
MinimizeRooms = 100;
RolesSoftContinuity = [|1, 2|3, 2|];
SameDegreeInRoom = 0;
Mergeability = 1;
